NAME: PointSet_Angle_55_9
TYPE: TSP
COMMENT: Points chosen discrete uniformly at random out of ${0, \ldots, 500}^2$.
DIMENSION: 55
EDGE_WEIGHT_TYPE: EUC_2D
NODE_COORD_SECTION
1 19 315
2 447 38
3 427 267
4 415 470
5 405 305
6 291 297
7 463 230
8 260 84
9 66 465
10 473 155
11 271 64
12 95 229
13 46 291
14 479 9
15 33 55
16 244 299
17 370 437
18 338 42
19 203 499
20 259 354
21 50 49
22 150 12
23 25 410
24 344 339
25 120 316
26 494 392
27 127 89
28 367 173
29 380 345
30 429 159
31 146 172
32 458 262
33 108 41
34 305 58
35 40 310
36 412 90
37 359 62
38 349 130
39 218 192
40 469 339
41 8 463
42 477 382
43 298 343
44 54 424
45 434 229
46 82 327
47 147 286
48 88 255
49 74 139
50 59 114
51 449 472
52 451 53
53 280 299
54 431 498
55 238 145
EOF
